c Random 9-CNF over 40 variables and 120 clauses
c Generated with `cnfgen`
c (C) 2012-2016 Massimo Lauria <lauria.massimo@gmail.com>
c https://massimolauria.github.io/cnfgen
c
c COMMAND LINE: cnfgen --output tmp-9-40-120.dimacs --output-format dimacs randkcnf 9 40 120
c
c sdimacs generated by gen-sdimacs
c
p cnf 40 120
r 0.5 1 2 3 4 5 6 7 8 9 10 11 12 13 14 15 16 17 18 19 20 0
e  21 22 23 24 25 26 27 28 29 30 31 32 33 34 35 36 37 38 39 40 0
-7 14 15 -17 24 25 -31 -32 -36 0
2 -8 -9 -16 21 -25 -29 -38 -40 0
-1 -4 5 -6 12 -17 -23 -26 -32 0
-1 -3 10 14 16 17 21 34 39 0
3 7 8 -10 21 -30 -31 -33 -40 0
-1 -2 -7 -10 11 -15 -25 37 39 0
1 7 8 -11 -17 18 22 -26 -33 0
1 -5 -12 21 23 26 28 -32 35 0
-2 -7 -11 -19 22 -28 34 36 39 0
-1 -8 -11 12 13 17 -26 -32 -39 0
-6 9 -10 13 -16 21 26 33 -37 0
-6 -11 -20 23 -28 32 33 36 -39 0
2 -11 -13 16 23 25 -29 -32 37 0
-5 6 9 15 -17 -25 31 -32 -34 0
4 7 -12 18 21 25 28 -32 38 0
-1 -5 -8 -9 12 -21 -33 36 -37 0
4 8 -11 16 -17 20 21 23 -38 0
2 -9 11 16 -21 -23 -30 -31 -40 0
-3 -17 20 -23 33 -35 -37 38 40 0
1 10 15 20 -22 -23 -24 -30 -34 0
2 -3 4 9 12 28 29 -34 -35 0
1 -8 -10 -15 17 -22 -27 -32 -37 0
3 4 7 -20 -26 32 -33 35 37 0
-1 4 9 -10 13 14 20 -21 -24 0
-10 12 22 -25 26 -27 -33 -35 37 0
-2 3 9 12 -17 -22 -23 -34 40 0
2 -5 -10 -16 23 -26 -31 32 -35 0
-3 10 12 -14 -20 21 -32 -33 -37 0
-10 -13 -15 19 -23 -31 34 -35 -38 0
-3 10 11 12 19 -22 -25 31 32 0
4 6 8 17 -19 29 -31 35 -39 0
-9 -11 13 -15 -17 -18 -27 -35 -39 0
-5 -7 -10 -12 -14 18 -19 23 -37 0
4 6 -10 19 -22 25 -31 -36 37 0
-3 -9 -11 19 -22 28 -29 30 31 0
4 -6 -9 -18 29 31 32 -38 40 0
1 9 19 20 -21 -27 -28 -33 -39 0
-8 -10 -12 -16 -22 -26 -33 -35 36 0
1 -4 6 -10 11 -24 26 27 38 0
1 2 6 8 15 24 -30 31 34 0
-9 15 -18 24 -27 29 -30 32 -40 0
1 4 -6 -8 13 19 -21 -30 40 0
6 7 -8 -19 -22 -31 -34 36 37 0
8 12 -14 -15 24 31 -33 -39 -40 0
-3 -6 9 -13 -19 -20 -24 -26 29 0
4 10 14 -15 -23 27 29 30 -40 0
4 -5 12 17 26 -27 34 -37 38 0
2 -5 -6 -16 22 23 -26 31 -36 0
-1 2 -19 -20 22 26 28 34 -40 0
-1 4 -5 -13 21 -23 -32 36 -37 0
-4 -5 11 -17 18 -22 -26 -29 -33 0
1 10 -14 -18 23 -25 28 33 35 0
6 8 18 19 20 -25 34 -37 38 0
2 -5 -8 -12 17 -20 -26 33 36 0
-2 3 8 -9 -10 -20 -26 31 39 0
-2 7 11 -13 14 21 29 -36 39 0
8 -16 17 -19 -23 -25 -28 32 -39 0
7 -13 19 22 -23 24 28 -33 -38 0
5 8 -9 18 24 26 -28 35 -36 0
-4 5 -11 -12 15 17 -28 -29 -35 0
-6 9 -16 -18 -27 -28 30 -32 33 0
-1 -9 11 -18 23 -24 25 -32 33 0
3 4 8 9 -11 -27 -29 -35 -38 0
2 3 -13 -17 -25 26 32 -33 -39 0
2 -3 4 -6 -9 14 -24 -31 -34 0
5 -10 -16 23 33 -35 -37 38 -40 0
20 -21 -23 24 27 28 -35 38 39 0
2 4 -5 -9 18 26 31 -33 -38 0
3 -7 14 15 23 26 -30 -33 38 0
-4 -6 12 25 28 30 33 -37 39 0
-2 7 -9 10 12 15 -18 -28 -39 0
-1 5 11 -12 13 -18 -32 -35 -36 0
3 -5 8 10 16 17 -26 27 -31 0
6 13 15 17 20 -25 -28 31 33 0
2 -9 11 17 21 22 -28 29 33 0
-4 -8 -15 -18 -20 -21 22 -28 -35 0
9 10 -12 -14 -24 -25 31 -38 -39 0
-1 -4 -6 19 -25 -29 -30 -35 -38 0
-6 -15 -16 18 -22 -31 32 34 39 0
3 -4 -6 -19 -20 -22 30 31 -40 0
-1 10 13 -14 24 -29 31 36 -37 0
4 -5 -14 17 21 22 -29 31 -32 0
1 8 -12 -16 -20 -21 24 -26 39 0
8 -9 12 -22 24 -25 29 31 34 0
-2 -8 10 16 -19 33 -35 -39 40 0
-7 11 -20 -26 -29 33 34 -37 38 0
5 10 12 -18 22 24 -25 -28 33 0
-1 -4 5 14 16 -24 -25 26 -37 0
7 8 11 14 16 -18 -20 21 -39 0
2 -9 -11 12 14 16 -26 30 40 0
-3 -5 -10 -13 -15 26 -28 -38 -39 0
2 3 6 -8 -20 29 33 -38 39 0
-2 -7 -10 -18 26 -33 34 36 39 0
9 -11 16 -17 20 26 -28 31 -37 0
-4 7 -17 -20 27 -28 -31 -32 -33 0
-7 9 10 -16 29 30 -32 33 -40 0
-5 -13 19 26 27 -28 32 -36 39 0
-1 -2 -9 -10 11 -14 -16 21 39 0
-2 8 -15 -18 -19 22 25 26 36 0
3 6 -8 -17 -21 -24 25 -27 31 0
-2 -3 -11 16 -17 22 23 -25 40 0
-3 9 -13 -24 26 -29 34 36 -40 0
-8 14 22 31 -33 36 -37 -38 40 0
-4 -17 21 22 28 30 -32 37 -40 0
2 8 9 12 16 -18 19 37 -40 0
-13 -18 26 -29 -30 33 35 -36 -40 0
-5 9 11 -13 19 -28 31 34 -37 0
-1 -9 -10 19 -21 22 26 -27 -32 0
1 -4 5 8 -10 19 31 34 -39 0
-2 4 -15 19 20 -21 -31 32 37 0
-3 8 11 -14 -25 -29 36 -38 -40 0
-17 19 -22 24 -30 34 -36 37 -38 0
-4 -13 -15 20 25 27 -31 -35 39 0
-2 -4 -8 -11 15 18 -28 -30 35 0
-2 -5 8 11 16 -22 -27 -31 38 0
-6 8 12 -13 -23 29 -31 -36 37 0
-5 8 14 18 -23 -24 27 -33 -34 0
6 8 -10 14 24 -29 32 33 39 0
7 -13 -14 17 -19 -22 -23 -36 38 0
-4 9 -10 20 -23 27 29 -31 36 0
